************************************************************************
file with basedata            : md317_.bas
initial value random generator: 26395
************************************************************************
projects                      :  1
jobs (incl. supersource/sink ):  20
horizon                       :  154
RESOURCES
  - renewable                 :  2   R
  - nonrenewable              :  2   N
  - doubly constrained        :  0   D
************************************************************************
PROJECT INFORMATION:
pronr.  #jobs rel.date duedate tardcost  MPM-Time
    1     18      0       22        3       22
************************************************************************
PRECEDENCE RELATIONS:
jobnr.    #modes  #successors   successors
   1        1          3           2   3   4
   2        3          3           5   6  17
   3        3          3           5   9  15
   4        3          3           9  12  15
   5        3          1          18
   6        3          3           7   8  13
   7        3          3          11  16  19
   8        3          2          10  19
   9        3          3          13  14  19
  10        3          2          11  16
  11        3          1          15
  12        3          2          13  14
  13        3          1          16
  14        3          1          17
  15        3          1          18
  16        3          1          18
  17        3          1          20
  18        3          1          20
  19        3          1          20
  20        1          0        
************************************************************************
REQUESTS/DURATIONS:
jobnr. mode duration  R 1  R 2  N 1  N 2
------------------------------------------------------------------------
  1      1     0       0    0    0    0
  2      1     1       4    7    6    8
         2     3       2    7    6    6
         3     7       2    6    4    4
  3      1     4       8   10    5   10
         2     6       8    7    5    9
         3    10       8    5    2    9
  4      1     2      10    9    7    5
         2     5       8    5    6    3
         3    10       7    5    3    1
  5      1     4      10    8    4   10
         2     4      10   10    4    6
         3     6       8    4    3    6
  6      1     3       9    7    5    3
         2     6       8    7    3    3
         3     9       8    6    2    3
  7      1     2       9   10   10    4
         2     4       8    8   10    4
         3    10       8    5   10    1
  8      1     3      10    6    9    7
         2     5       9    4    7    7
         3     9       8    3    4    5
  9      1     5       7    8    9    6
         2     5       8    6    7    6
         3     8       4    6    4    6
 10      1     2       1    3   10    4
         2     5       1    3   10    2
         3     6       1    2   10    2
 11      1     6       9    6    6    7
         2     9       6    4    6    3
         3     9       4    5    3    5
 12      1     1       8    2    6    8
         2     2       8    1    5    8
         3     9       7    1    5    7
 13      1     1       8    8   10    7
         2     2       7    7    8    4
         3     8       7    6    8    4
 14      1     7       5    8    8    3
         2     7       4    9    8    3
         3    10       2    6    4    3
 15      1     4      10    5    8    8
         2     6      10    5    6    4
         3     9      10    4    6    4
 16      1     5       3    6    3    9
         2     6       3    4    3    5
         3     9       3    2    3    3
 17      1     3       4    7    1    8
         2     7       4    7    1    6
         3     9       4    4    1    2
 18      1     3       9   10    4    9
         2     5       7    9    4    8
         3     6       4    8    2    6
 19      1     1       8    9    6    6
         2     2       5    8    6    5
         3    10       3    7    5    5
 20      1     0       0    0    0    0
************************************************************************
RESOURCEAVAILABILITIES:
  R 1  R 2  N 1  N 2
   17   15  117  122
************************************************************************
